

******************************************************************************
This program contains Ipopt, a library for large-scale nonlinear optimization.
 Ipopt is released as open source code under the Eclipse Public License (EPL).
         For more information visit https://github.com/coin-or/Ipopt
******************************************************************************

This is Ipopt version 3.14.11, running with linear solver MUMPS 5.5.1.

Number of nonzeros in equality constraint Jacobian...:        0
Number of nonzeros in inequality constraint Jacobian.:        9
Number of nonzeros in Lagrangian Hessian.............:        2

Total number of variables............................:        3
                     variables with only lower bounds:        0
                variables with lower and upper bounds:        0
                     variables with only upper bounds:        0
Total number of equality constraints.................:        0
Total number of inequality constraints...............:        3
        inequality constraints with only lower bounds:        3
   inequality constraints with lower and upper bounds:        0
        inequality constraints with only upper bounds:        0

iter    objective    inf_pr   inf_du lg(mu)  ||d||  lg(rg) alpha_du alpha_pr  ls
   0  2.0000000e+00 1.40e+01 1.15e+00  -1.0 0.00e+00    -  0.00e+00 0.00e+00   0
   1  3.4766213e+00 2.98e+00 1.88e-01  -1.0 5.56e+00    -  8.41e-01 1.00e+00h  1
   2 -2.1336667e+00 0.00e+00 1.59e+00  -1.0 1.48e+01    -  2.28e-02 9.38e-01f  1
   3 -8.6456487e-01 0.00e+00 3.22e+00  -1.0 5.08e+00   0.0 1.00e+00 2.50e-01h  3
   4 -1.3618627e+00 0.00e+00 9.99e-01  -1.0 1.00e+01    -  1.00e+00 1.00e+00h  1
   5 -3.3791053e+01 1.04e+03 3.87e-01  -1.7 3.71e+01    -  1.00e+00 8.73e-01f  1
   6 -1.7655594e+01 2.60e+02 1.53e-01  -1.7 1.62e+01    -  1.00e+00 1.00e+00h  1
   7 -9.6220809e+00 6.44e+01 2.84e-01  -1.7 8.03e+00    -  1.00e+00 1.00e+00h  1
   8 -5.6600784e+00 1.54e+01 3.06e-01  -1.7 3.96e+00    -  1.00e+00 1.00e+00h  1
   9 -3.9940213e+00 4.16e+00 2.46e-01  -1.7 1.83e+00    -  1.00e+00 9.11e-01h  1
iter    objective    inf_pr   inf_du lg(mu)  ||d||  lg(rg) alpha_du alpha_pr  ls
  10 -3.1460198e+00 5.82e-01 1.64e-01  -1.7 8.48e-01    -  1.00e+00 1.00e+00h  1
  11 -2.9579597e+00 0.00e+00 2.73e-02  -1.7 1.88e-01    -  1.00e+00 1.00e+00h  1
  12 -2.9914289e+00 0.00e+00 3.77e-04  -2.5 4.89e-02    -  1.00e+00 1.00e+00h  1
  13 -2.9995483e+00 0.00e+00 4.89e-07  -3.8 8.92e-03    -  1.00e+00 1.00e+00h  1
  14 -2.9999945e+00 0.00e+00 1.84e-11  -5.7 4.50e-04    -  1.00e+00 1.00e+00h  1
  15 -3.0000000e+00 0.00e+00 2.50e-14  -8.6 5.53e-06    -  1.00e+00 1.00e+00h  1

Number of Iterations....: 15

                                   (scaled)                 (unscaled)
Objective...............:  -3.0000000024822886e+00   -3.0000000024822886e+00
Dual infeasibility......:   2.5035529205297280e-14    2.5035529205297280e-14
Constraint violation....:   0.0000000000000000e+00    0.0000000000000000e+00
Variable bound violation:   0.0000000000000000e+00    0.0000000000000000e+00
Complementarity.........:   2.5059040656495858e-09    2.5059040656495858e-09
Overall NLP error.......:   2.5059040656495858e-09    2.5059040656495858e-09


Number of objective function evaluations             = 19
Number of objective gradient evaluations             = 16
Number of equality constraint evaluations            = 0
Number of inequality constraint evaluations          = 19
Number of equality constraint Jacobian evaluations   = 0
Number of inequality constraint Jacobian evaluations = 16
Number of Lagrangian Hessian evaluations             = 15
Total seconds in IPOPT                               = 0.021

EXIT: Optimal Solution Found.
 
Ipopt 3.14.11: Optimal Solution Found
